(declare-fun e () String)
(declare-fun c () String)
(declare-fun g () String)
(declare-fun b () String)
(declare-fun d () String)
(declare-fun f () String)
(declare-fun a () String)
(declare-fun h () String)
(assert (= (str.++ f "g" e g "a" h) (str.++ c e)))
(assert (= (str.++ "g" a b f) (str.++ "c" d b)))
(assert (= (str.++ "hbcc" a) (str.++ "fg" c "bc")))

(check-sat)
